
Gurobi 9.5.2 (mac64[arm]) logging started Fri Apr 28 13:33:01 2023

Set parameter LogFile to value "Java/output/pure_mip_2_machine/scenario_seed_4_nJob_30_machineCount_2/mip_increment_5/log.txt"
Gurobi Optimizer version 9.5.2 build v9.5.2rc0 (mac64[arm])
Thread count: 8 physical cores, 8 logical processors, using up to 8 threads
Optimize a model with 460 rows, 4750 columns and 19447 nonzeros
Model fingerprint: 0x2f81091d
Variable types: 0 continuous, 4750 integer (4750 binary)
Coefficient statistics:
  Matrix range     [1e+00, 1e+02]
  Objective range  [5e+00, 2e+06]
  Bounds range     [1e+00, 1e+00]
  RHS range        [1e+00, 1e+00]
Presolve removed 15 rows and 901 columns
Presolve time: 0.03s
Presolved: 445 rows, 3849 columns, 15852 nonzeros
Variable types: 0 continuous, 3849 integer (3849 binary)

Root relaxation: objective 1.125187e+04, 2149 iterations, 0.04 seconds (0.05 work units)

    Nodes    |    Current Node    |     Objective Bounds      |     Work
 Expl Unexpl |  Obj  Depth IntInf | Incumbent    BestBd   Gap | It/Node Time

     0     0 11251.8722    0  160          - 11251.8722      -     -    0s
H    0     0                    2603204.0000 11251.8722   100%     -    0s
H    0     0                    1826199.0000 11251.8722  99.4%     -    0s
H    0     0                    1730638.0000 11251.8722  99.3%     -    0s
     0     0 12977.2595    0  221 1730638.00 12977.2595  99.3%     -    0s
H    0     0                    1730618.0000 12977.2595  99.3%     -    0s
H    0     0                    1054286.0000 12977.2595  98.8%     -    0s
     0     0 12978.3427    0  223 1054286.00 12978.3427  98.8%     -    0s
H    0     0                    835062.00000 15608.1211  98.1%     -    0s
     0     0 15608.1211    0  268 835062.000 15608.1211  98.1%     -    0s
     0     0 15643.7268    0  257 835062.000 15643.7268  98.1%     -    0s
     0     0 15644.4418    0  274 835062.000 15644.4418  98.1%     -    0s
     0     0 18867.4276    0  270 835062.000 18867.4276  97.7%     -    0s
     0     0 19172.7067    0  275 835062.000 19172.7067  97.7%     -    0s
     0     0 19177.9651    0  284 835062.000 19177.9651  97.7%     -    0s
     0     0 19178.6843    0  285 835062.000 19178.6843  97.7%     -    0s
H    0     0                    832225.00000 22233.6930  97.3%     -    0s
H    0     0                    614195.00000 22233.6930  96.4%     -    0s
     0     0 22233.6930    0  304 614195.000 22233.6930  96.4%     -    0s
H    0     0                    606915.00000 22233.6930  96.3%     -    0s
H    0     0                    599616.00000 22233.6930  96.3%     -    0s
H    0     0                    488403.00000 22366.2769  95.4%     -    0s
     0     0 22366.2769    0  315 488403.000 22366.2769  95.4%     -    0s
     0     0 22394.7727    0  308 488403.000 22394.7727  95.4%     -    0s
     0     0 22394.7936    0  308 488403.000 22394.7936  95.4%     -    0s
H    0     0                    96541.000000 24049.8372  75.1%     -    0s
H    0     0                    73729.000000 24049.8372  67.4%     -    0s
     0     0 24049.8372    0  297 73729.0000 24049.8372  67.4%     -    0s
H    0     0                    73715.000000 24049.8372  67.4%     -    0s
H    0     0                    62441.000000 24049.8372  61.5%     -    0s
H    0     0                    40876.000000 24237.0900  40.7%     -    0s
     0     0 24237.0900    0  315 40876.0000 24237.0900  40.7%     -    0s
     0     0 24256.8803    0  319 40876.0000 24256.8803  40.7%     -    0s
H    0     0                    40839.000000 24257.1184  40.6%     -    0s
     0     0 24257.1184    0  320 40839.0000 24257.1184  40.6%     -    0s
     0     0 24648.1899    0  223 40839.0000 24648.1899  39.6%     -    0s
     0     0 24648.1899    0  177 40839.0000 24648.1899  39.6%     -    0s
     0     0 24648.1899    0  240 40839.0000 24648.1899  39.6%     -    1s
     0     0 24648.1899    0  286 40839.0000 24648.1899  39.6%     -    1s
     0     0 24648.1899    0  249 40839.0000 24648.1899  39.6%     -    1s
     0     0 24650.2290    0  191 40839.0000 24650.2290  39.6%     -    1s
     0     0 24651.0487    0  219 40839.0000 24651.0487  39.6%     -    1s
     0     0 26117.5590    0  283 40839.0000 26117.5590  36.0%     -    1s
     0     0 26273.3716    0  268 40839.0000 26273.3716  35.7%     -    1s
     0     0 26273.8303    0  271 40839.0000 26273.8303  35.7%     -    1s
     0     0 26630.8405    0  317 40839.0000 26630.8405  34.8%     -    1s
     0     0 26631.9886    0  318 40839.0000 26631.9886  34.8%     -    1s
     0     0 26868.2248    0  314 40839.0000 26868.2248  34.2%     -    1s
     0     0 26873.4074    0  325 40839.0000 26873.4074  34.2%     -    1s
     0     0 26875.8815    0  328 40839.0000 26875.8815  34.2%     -    1s
     0     0 26875.8815    0  318 40839.0000 26875.8815  34.2%     -    1s
H    0     0                    35906.000000 26875.8815  25.1%     -    1s
H    0     0                    27906.000000 26879.0910  3.68%     -    1s
     0     0 26879.0910    0  173 27906.0000 26879.0910  3.68%     -    1s
H    0     0                    27903.000000 26879.0910  3.67%     -    1s
     0     0 26879.0910    0  201 27903.0000 26879.0910  3.67%     -    1s
     0     0 26879.0910    0  206 27903.0000 26879.0910  3.67%     -    1s
     0     0 27025.1617    0  236 27903.0000 27025.1617  3.15%     -    1s
     0     0 27031.0121    0  234 27903.0000 27031.0121  3.13%     -    1s
     0     0 27040.5729    0  224 27903.0000 27040.5729  3.09%     -    1s
     0     0 27040.8542    0  221 27903.0000 27040.8542  3.09%     -    1s
     0     0 27072.4550    0  206 27903.0000 27072.4550  2.98%     -    1s
H    0     0                    27843.000000 27072.4550  2.77%     -    1s
     0     0 27074.4363    0  218 27843.0000 27074.4363  2.76%     -    1s
     0     0 27089.7900    0  250 27843.0000 27089.7900  2.71%     -    1s
     0     0 27089.7900    0  242 27843.0000 27089.7900  2.71%     -    1s
H    0     0                    27147.000000 27089.7900  0.21%     -    1s
H    0     0                    27145.000000 27090.1227  0.20%     -    1s
     0     0 27090.1227    0   88 27145.0000 27090.1227  0.20%     -    1s
     0     0 27114.0381    0  119 27145.0000 27114.0381  0.11%     -    1s
     0     0 27126.2706    0  106 27145.0000 27126.2706  0.07%     -    1s
     0     0 27127.0745    0  103 27145.0000 27127.0745  0.07%     -    1s
     0     0 27127.4959    0  112 27145.0000 27127.4959  0.06%     -    1s
     0     0 27127.5006    0  113 27145.0000 27127.5006  0.06%     -    1s
     0     0 27130.0816    0  124 27145.0000 27130.0816  0.05%     -    1s
     0     0 27130.0816    0   78 27145.0000 27130.0816  0.05%     -    1s
H    0     0                    27140.000000 27130.0816  0.04%     -    1s
     0     0 27130.0816    0   95 27140.0000 27130.0816  0.04%     -    1s
     0     0 27130.1667    0   81 27140.0000 27130.1667  0.04%     -    1s
     0     0 27131.7421    0  109 27140.0000 27131.7421  0.03%     -    1s
     0     0 27132.3919    0   84 27140.0000 27132.3919  0.03%     -    1s
     0     0 27132.3919    0   85 27140.0000 27132.3919  0.03%     -    1s
     0     0 27133.7500    0   97 27140.0000 27133.7500  0.02%     -    1s
     0     0 27134.2327    0  107 27140.0000 27134.2327  0.02%     -    1s
     0     0 27134.2655    0  115 27140.0000 27134.2655  0.02%     -    1s
     0     0 27134.4375    0  112 27140.0000 27134.4375  0.02%     -    1s
     0     0 27134.4737    0  103 27140.0000 27134.4737  0.02%     -    1s
     0     0 27134.4737    0  107 27140.0000 27134.4737  0.02%     -    1s
     0     0 27134.5714    0   81 27140.0000 27134.5714  0.02%     -    1s
     0     0 27134.5714    0   81 27140.0000 27134.5714  0.02%     -    1s
     0     0 27135.1000    0  103 27140.0000 27135.1000  0.02%     -    1s
     0     0 27135.1818    0   93 27140.0000 27135.1818  0.02%     -    1s
     0     0 27135.1875    0   92 27140.0000 27135.1875  0.02%     -    1s
     0     0 27135.2143    0   98 27140.0000 27135.2143  0.02%     -    1s
     0     0 27136.0000    0   69 27140.0000 27136.0000  0.01%     -    1s
     0     0 27136.0000    0   67 27140.0000 27136.0000  0.01%     -    1s
     0     0 27136.0000    0   66 27140.0000 27136.0000  0.01%     -    1s
     0     0 27136.0000    0   66 27140.0000 27136.0000  0.01%     -    1s

Cutting planes:
  Gomory: 2
  Clique: 9
  MIR: 12
  StrongCG: 1
  GUB cover: 28
  Zero half: 12

Explored 1 nodes (25301 simplex iterations) in 1.81 seconds (2.07 work units)
Thread count was 8 (of 8 available processors)

Solution count 10: 27140 27145 27145 ... 27903

Optimal solution found (tolerance 1.00e-04)
Best objective 2.714000000000e+04, best bound 2.713800000000e+04, gap 0.0074%
